; benchmark generated from python API
(set-info :status unknown)
(declare-fun cell_1_8 () Int)
(declare-fun cell_1_9 () Int)
(declare-fun cell_2_2 () Int)
(declare-fun cell_2_5 () Int)
(declare-fun cell_3_4 () Int)
(declare-fun cell_4_9 () Int)
(declare-fun cell_5_1 () Int)
(declare-fun cell_6_6 () Int)
(declare-fun cell_7_7 () Int)
(declare-fun cell_8_5 () Int)
(declare-fun cell_9_3 () Int)
(declare-fun cell_1_1 () Int)
(declare-fun cell_2_1 () Int)
(declare-fun cell_3_1 () Int)
(declare-fun cell_4_1 () Int)
(declare-fun cell_6_1 () Int)
(declare-fun cell_7_1 () Int)
(declare-fun cell_8_1 () Int)
(declare-fun cell_9_1 () Int)
(declare-fun cell_1_2 () Int)
(declare-fun cell_3_2 () Int)
(declare-fun cell_4_2 () Int)
(declare-fun cell_5_2 () Int)
(declare-fun cell_6_2 () Int)
(declare-fun cell_7_2 () Int)
(declare-fun cell_8_2 () Int)
(declare-fun cell_9_2 () Int)
(declare-fun cell_1_3 () Int)
(declare-fun cell_2_3 () Int)
(declare-fun cell_3_3 () Int)
(declare-fun cell_4_3 () Int)
(declare-fun cell_5_3 () Int)
(declare-fun cell_6_3 () Int)
(declare-fun cell_7_3 () Int)
(declare-fun cell_8_3 () Int)
(declare-fun cell_1_4 () Int)
(declare-fun cell_2_4 () Int)
(declare-fun cell_4_4 () Int)
(declare-fun cell_5_4 () Int)
(declare-fun cell_6_4 () Int)
(declare-fun cell_7_4 () Int)
(declare-fun cell_8_4 () Int)
(declare-fun cell_9_4 () Int)
(declare-fun cell_1_5 () Int)
(declare-fun cell_3_5 () Int)
(declare-fun cell_4_5 () Int)
(declare-fun cell_5_5 () Int)
(declare-fun cell_6_5 () Int)
(declare-fun cell_7_5 () Int)
(declare-fun cell_9_5 () Int)
(declare-fun cell_1_6 () Int)
(declare-fun cell_2_6 () Int)
(declare-fun cell_3_6 () Int)
(declare-fun cell_4_6 () Int)
(declare-fun cell_5_6 () Int)
(declare-fun cell_7_6 () Int)
(declare-fun cell_8_6 () Int)
(declare-fun cell_9_6 () Int)
(declare-fun cell_1_7 () Int)
(declare-fun cell_2_7 () Int)
(declare-fun cell_3_7 () Int)
(declare-fun cell_4_7 () Int)
(declare-fun cell_5_7 () Int)
(declare-fun cell_6_7 () Int)
(declare-fun cell_8_7 () Int)
(declare-fun cell_9_7 () Int)
(declare-fun cell_2_8 () Int)
(declare-fun cell_3_8 () Int)
(declare-fun cell_4_8 () Int)
(declare-fun cell_5_8 () Int)
(declare-fun cell_6_8 () Int)
(declare-fun cell_7_8 () Int)
(declare-fun cell_8_8 () Int)
(declare-fun cell_9_8 () Int)
(declare-fun cell_2_9 () Int)
(declare-fun cell_3_9 () Int)
(declare-fun cell_5_9 () Int)
(declare-fun cell_6_9 () Int)
(declare-fun cell_7_9 () Int)
(declare-fun cell_8_9 () Int)
(declare-fun cell_9_9 () Int)
(assert
 (= cell_1_8 1))
(assert
 (= cell_1_9 2))
(assert
 (= cell_2_2 1))
(assert
 (= cell_2_5 2))
(assert
 (= cell_3_4 1))
(assert
 (= cell_4_9 1))
(assert
 (= cell_5_1 1))
(assert
 (= cell_6_6 1))
(assert
 (= cell_7_7 1))
(assert
 (= cell_8_5 1))
(assert
 (= cell_9_3 1))
(assert
 (let (($x46 (= cell_1_1 9)))
 (let (($x251 (= cell_1_1 8)))
 (let (($x443 (= cell_1_1 7)))
 (let (($x2134 (= cell_1_1 6)))
 (let (($x419 (= cell_1_1 5)))
 (let (($x3223 (= cell_1_1 4)))
 (let (($x317 (= cell_1_1 3)))
 (let (($x2791 (= cell_1_1 2)))
 (let (($x810 (= cell_1_1 1)))
 (or $x810 $x2791 $x317 $x3223 $x419 $x2134 $x443 $x251 $x46)))))))))))
(assert
 (let (($x2548 (= cell_2_1 9)))
 (let (($x3130 (= cell_2_1 8)))
 (let (($x2926 (= cell_2_1 7)))
 (let (($x2217 (= cell_2_1 6)))
 (let (($x941 (= cell_2_1 5)))
 (let (($x547 (= cell_2_1 4)))
 (let (($x1681 (= cell_2_1 3)))
 (let (($x1873 (= cell_2_1 2)))
 (let (($x730 (= cell_2_1 1)))
 (or $x730 $x1873 $x1681 $x547 $x941 $x2217 $x2926 $x3130 $x2548)))))))))))
(assert
 (let (($x3169 (= cell_3_1 9)))
 (let (($x3401 (= cell_3_1 8)))
 (let (($x854 (= cell_3_1 7)))
 (let (($x1005 (= cell_3_1 6)))
 (let (($x2099 (= cell_3_1 5)))
 (let (($x2076 (= cell_3_1 4)))
 (let (($x1462 (= cell_3_1 3)))
 (let (($x23 (= cell_3_1 2)))
 (let (($x714 (= cell_3_1 1)))
 (or $x714 $x23 $x1462 $x2076 $x2099 $x1005 $x854 $x3401 $x3169)))))))))))
(assert
 (let (($x1765 (= cell_4_1 9)))
 (let (($x933 (= cell_4_1 8)))
 (let (($x2106 (= cell_4_1 7)))
 (let (($x3360 (= cell_4_1 6)))
 (let (($x603 (= cell_4_1 5)))
 (let (($x830 (= cell_4_1 4)))
 (let (($x1275 (= cell_4_1 3)))
 (let (($x918 (= cell_4_1 2)))
 (let (($x2817 (= cell_4_1 1)))
 (or $x2817 $x918 $x1275 $x830 $x603 $x3360 $x2106 $x933 $x1765)))))))))))
(assert
 (let (($x1767 (= cell_5_1 1)))
 (or $x1767 (= cell_5_1 2) (= cell_5_1 3) (= cell_5_1 4) (= cell_5_1 5) (= cell_5_1 6) (= cell_5_1 7) (= cell_5_1 8) (= cell_5_1 9))))
(assert
 (let (($x2948 (= cell_6_1 9)))
 (let (($x2469 (= cell_6_1 8)))
 (let (($x1610 (= cell_6_1 7)))
 (let (($x1303 (= cell_6_1 6)))
 (let (($x1689 (= cell_6_1 5)))
 (let (($x1812 (= cell_6_1 4)))
 (let (($x1830 (= cell_6_1 3)))
 (let (($x1444 (= cell_6_1 2)))
 (let (($x1633 (= cell_6_1 1)))
 (or $x1633 $x1444 $x1830 $x1812 $x1689 $x1303 $x1610 $x2469 $x2948)))))))))))
(assert
 (let (($x738 (= cell_7_1 9)))
 (let (($x2141 (= cell_7_1 8)))
 (let (($x241 (= cell_7_1 7)))
 (let (($x1120 (= cell_7_1 6)))
 (let (($x3347 (= cell_7_1 5)))
 (let (($x545 (= cell_7_1 4)))
 (let (($x1470 (= cell_7_1 3)))
 (let (($x2757 (= cell_7_1 2)))
 (let (($x1032 (= cell_7_1 1)))
 (or $x1032 $x2757 $x1470 $x545 $x3347 $x1120 $x241 $x2141 $x738)))))))))))
(assert
 (let (($x1192 (= cell_8_1 9)))
 (let (($x2738 (= cell_8_1 8)))
 (let (($x412 (= cell_8_1 7)))
 (let (($x2996 (= cell_8_1 6)))
 (let (($x2100 (= cell_8_1 5)))
 (let (($x2885 (= cell_8_1 4)))
 (let (($x633 (= cell_8_1 3)))
 (let (($x3255 (= cell_8_1 2)))
 (let (($x2788 (= cell_8_1 1)))
 (or $x2788 $x3255 $x633 $x2885 $x2100 $x2996 $x412 $x2738 $x1192)))))))))))
(assert
 (let (($x736 (= cell_9_1 9)))
 (let (($x162 (= cell_9_1 8)))
 (let (($x2080 (= cell_9_1 7)))
 (let (($x1738 (= cell_9_1 6)))
 (let (($x186 (= cell_9_1 5)))
 (let (($x2168 (= cell_9_1 4)))
 (let (($x1307 (= cell_9_1 3)))
 (let (($x1780 (= cell_9_1 2)))
 (let (($x1525 (= cell_9_1 1)))
 (or $x1525 $x1780 $x1307 $x2168 $x186 $x1738 $x2080 $x162 $x736)))))))))))
(assert
 (let (($x1321 (= cell_1_2 9)))
 (let (($x279 (= cell_1_2 8)))
 (let (($x137 (= cell_1_2 7)))
 (let (($x60 (= cell_1_2 6)))
 (let (($x1184 (= cell_1_2 5)))
 (let (($x2396 (= cell_1_2 4)))
 (let (($x912 (= cell_1_2 3)))
 (let (($x1666 (= cell_1_2 2)))
 (let (($x2774 (= cell_1_2 1)))
 (or $x2774 $x1666 $x912 $x2396 $x1184 $x60 $x137 $x279 $x1321)))))))))))
(assert
 (let (($x1532 (= cell_2_2 1)))
 (or $x1532 (= cell_2_2 2) (= cell_2_2 3) (= cell_2_2 4) (= cell_2_2 5) (= cell_2_2 6) (= cell_2_2 7) (= cell_2_2 8) (= cell_2_2 9))))
(assert
 (let (($x189 (= cell_3_2 9)))
 (let (($x1564 (= cell_3_2 8)))
 (let (($x2719 (= cell_3_2 7)))
 (let (($x1264 (= cell_3_2 6)))
 (let (($x1042 (= cell_3_2 5)))
 (let (($x2328 (= cell_3_2 4)))
 (let (($x802 (= cell_3_2 3)))
 (let (($x831 (= cell_3_2 2)))
 (let (($x1149 (= cell_3_2 1)))
 (or $x1149 $x831 $x802 $x2328 $x1042 $x1264 $x2719 $x1564 $x189)))))))))))
(assert
 (let (($x2046 (= cell_4_2 9)))
 (let (($x2239 (= cell_4_2 8)))
 (let (($x3229 (= cell_4_2 7)))
 (let (($x3039 (= cell_4_2 6)))
 (let (($x2883 (= cell_4_2 5)))
 (let (($x25 (= cell_4_2 4)))
 (let (($x3152 (= cell_4_2 3)))
 (let (($x287 (= cell_4_2 2)))
 (let (($x1912 (= cell_4_2 1)))
 (or $x1912 $x287 $x3152 $x25 $x2883 $x3039 $x3229 $x2239 $x2046)))))))))))
(assert
 (let (($x3417 (= cell_5_2 1)))
 (or $x3417 (= cell_5_2 2) (= cell_5_2 3) (= cell_5_2 4) (= cell_5_2 5) (= cell_5_2 6) (= cell_5_2 7) (= cell_5_2 8) (= cell_5_2 9))))
(assert
 (let (($x1831 (= cell_6_2 9)))
 (let (($x1658 (= cell_6_2 8)))
 (let (($x326 (= cell_6_2 7)))
 (let (($x1360 (= cell_6_2 6)))
 (let (($x172 (= cell_6_2 5)))
 (let (($x808 (= cell_6_2 4)))
 (let (($x888 (= cell_6_2 3)))
 (let (($x486 (= cell_6_2 2)))
 (let (($x651 (= cell_6_2 1)))
 (or $x651 $x486 $x888 $x808 $x172 $x1360 $x326 $x1658 $x1831)))))))))))
(assert
 (let (($x889 (= cell_7_2 9)))
 (let (($x2072 (= cell_7_2 8)))
 (let (($x2534 (= cell_7_2 7)))
 (let (($x593 (= cell_7_2 6)))
 (let (($x1466 (= cell_7_2 5)))
 (let (($x2859 (= cell_7_2 4)))
 (let (($x3233 (= cell_7_2 3)))
 (let (($x3017 (= cell_7_2 2)))
 (let (($x2009 (= cell_7_2 1)))
 (or $x2009 $x3017 $x3233 $x2859 $x1466 $x593 $x2534 $x2072 $x889)))))))))))
(assert
 (let (($x897 (= cell_8_2 9)))
 (let (($x3284 (= cell_8_2 8)))
 (let (($x2627 (= cell_8_2 7)))
 (let (($x2603 (= cell_8_2 6)))
 (let (($x1109 (= cell_8_2 5)))
 (let (($x3331 (= cell_8_2 4)))
 (let (($x748 (= cell_8_2 3)))
 (let (($x3168 (= cell_8_2 2)))
 (let (($x2751 (= cell_8_2 1)))
 (or $x2751 $x3168 $x748 $x3331 $x1109 $x2603 $x2627 $x3284 $x897)))))))))))
(assert
 (let (($x1062 (= cell_9_2 9)))
 (let (($x1156 (= cell_9_2 8)))
 (let (($x2835 (= cell_9_2 7)))
 (let (($x2908 (= cell_9_2 6)))
 (let (($x522 (= cell_9_2 5)))
 (let (($x384 (= cell_9_2 4)))
 (let (($x2200 (= cell_9_2 3)))
 (let (($x1918 (= cell_9_2 2)))
 (let (($x339 (= cell_9_2 1)))
 (or $x339 $x1918 $x2200 $x384 $x522 $x2908 $x2835 $x1156 $x1062)))))))))))
(assert
 (let (($x3034 (= cell_1_3 9)))
 (let (($x3216 (= cell_1_3 8)))
 (let (($x1322 (= cell_1_3 7)))
 (let (($x1127 (= cell_1_3 6)))
 (let (($x635 (= cell_1_3 5)))
 (let (($x1308 (= cell_1_3 4)))
 (let (($x1245 (= cell_1_3 3)))
 (let (($x3095 (= cell_1_3 2)))
 (let (($x2954 (= cell_1_3 1)))
 (or $x2954 $x3095 $x1245 $x1308 $x635 $x1127 $x1322 $x3216 $x3034)))))))))))
(assert
 (let (($x992 (= cell_2_3 9)))
 (let (($x2960 (= cell_2_3 8)))
 (let (($x644 (= cell_2_3 7)))
 (let (($x2448 (= cell_2_3 6)))
 (let (($x704 (= cell_2_3 5)))
 (let (($x1411 (= cell_2_3 4)))
 (let (($x2015 (= cell_2_3 3)))
 (let (($x1774 (= cell_2_3 2)))
 (let (($x1916 (= cell_2_3 1)))
 (or $x1916 $x1774 $x2015 $x1411 $x704 $x2448 $x644 $x2960 $x992)))))))))))
(assert
 (let (($x1066 (= cell_3_3 9)))
 (let (($x1110 (= cell_3_3 8)))
 (let (($x1007 (= cell_3_3 7)))
 (let (($x1656 (= cell_3_3 6)))
 (let (($x1446 (= cell_3_3 5)))
 (let (($x236 (= cell_3_3 4)))
 (let (($x3157 (= cell_3_3 3)))
 (let (($x355 (= cell_3_3 2)))
 (let (($x2515 (= cell_3_3 1)))
 (or $x2515 $x355 $x3157 $x236 $x1446 $x1656 $x1007 $x1110 $x1066)))))))))))
(assert
 (let (($x852 (= cell_4_3 9)))
 (let (($x1588 (= cell_4_3 8)))
 (let (($x1639 (= cell_4_3 7)))
 (let (($x1850 (= cell_4_3 6)))
 (let (($x2483 (= cell_4_3 5)))
 (let (($x2673 (= cell_4_3 4)))
 (let (($x2353 (= cell_4_3 3)))
 (let (($x3093 (= cell_4_3 2)))
 (let (($x1817 (= cell_4_3 1)))
 (or $x1817 $x3093 $x2353 $x2673 $x2483 $x1850 $x1639 $x1588 $x852)))))))))))
(assert
 (let (($x908 (= cell_5_3 9)))
 (let (($x2331 (= cell_5_3 8)))
 (let (($x2542 (= cell_5_3 7)))
 (let (($x2453 (= cell_5_3 6)))
 (let (($x192 (= cell_5_3 5)))
 (let (($x2643 (= cell_5_3 4)))
 (let (($x2872 (= cell_5_3 3)))
 (let (($x1622 (= cell_5_3 2)))
 (let (($x2936 (= cell_5_3 1)))
 (or $x2936 $x1622 $x2872 $x2643 $x192 $x2453 $x2542 $x2331 $x908)))))))))))
(assert
 (let (($x2971 (= cell_6_3 9)))
 (let (($x2317 (= cell_6_3 8)))
 (let (($x2021 (= cell_6_3 7)))
 (let (($x1650 (= cell_6_3 6)))
 (let (($x2810 (= cell_6_3 5)))
 (let (($x3080 (= cell_6_3 4)))
 (let (($x440 (= cell_6_3 3)))
 (let (($x2343 (= cell_6_3 2)))
 (let (($x2367 (= cell_6_3 1)))
 (or $x2367 $x2343 $x440 $x3080 $x2810 $x1650 $x2021 $x2317 $x2971)))))))))))
(assert
 (let (($x1491 (= cell_7_3 9)))
 (let (($x2400 (= cell_7_3 8)))
 (let (($x327 (= cell_7_3 7)))
 (let (($x710 (= cell_7_3 6)))
 (let (($x378 (= cell_7_3 5)))
 (let (($x2913 (= cell_7_3 4)))
 (let (($x1557 (= cell_7_3 3)))
 (let (($x1406 (= cell_7_3 2)))
 (let (($x1998 (= cell_7_3 1)))
 (or $x1998 $x1406 $x1557 $x2913 $x378 $x710 $x327 $x2400 $x1491)))))))))))
(assert
 (let (($x1708 (= cell_8_3 9)))
 (let (($x185 (= cell_8_3 8)))
 (let (($x2806 (= cell_8_3 7)))
 (let (($x640 (= cell_8_3 6)))
 (let (($x103 (= cell_8_3 5)))
 (let (($x2407 (= cell_8_3 4)))
 (let (($x2363 (= cell_8_3 3)))
 (let (($x510 (= cell_8_3 2)))
 (let (($x2386 (= cell_8_3 1)))
 (or $x2386 $x510 $x2363 $x2407 $x103 $x640 $x2806 $x185 $x1708)))))))))))
(assert
 (let (($x1710 (= cell_9_3 1)))
 (or $x1710 (= cell_9_3 2) (= cell_9_3 3) (= cell_9_3 4) (= cell_9_3 5) (= cell_9_3 6) (= cell_9_3 7) (= cell_9_3 8) (= cell_9_3 9))))
(assert
 (let (($x2820 (= cell_1_4 9)))
 (let (($x3276 (= cell_1_4 8)))
 (let (($x1405 (= cell_1_4 7)))
 (let (($x3373 (= cell_1_4 6)))
 (let (($x1862 (= cell_1_4 5)))
 (let (($x1193 (= cell_1_4 4)))
 (let (($x2798 (= cell_1_4 3)))
 (let (($x2370 (= cell_1_4 2)))
 (let (($x2734 (= cell_1_4 1)))
 (or $x2734 $x2370 $x2798 $x1193 $x1862 $x3373 $x1405 $x3276 $x2820)))))))))))
(assert
 (let (($x2071 (= cell_2_4 9)))
 (let (($x2460 (= cell_2_4 8)))
 (let (($x2078 (= cell_2_4 7)))
 (let (($x2568 (= cell_2_4 6)))
 (let (($x77 (= cell_2_4 5)))
 (let (($x2161 (= cell_2_4 4)))
 (let (($x196 (= cell_2_4 3)))
 (let (($x354 (= cell_2_4 2)))
 (let (($x2146 (= cell_2_4 1)))
 (or $x2146 $x354 $x196 $x2161 $x77 $x2568 $x2078 $x2460 $x2071)))))))))))
(assert
 (let (($x3420 (= cell_3_4 1)))
 (or $x3420 (= cell_3_4 2) (= cell_3_4 3) (= cell_3_4 4) (= cell_3_4 5) (= cell_3_4 6) (= cell_3_4 7) (= cell_3_4 8) (= cell_3_4 9))))
(assert
 (let (($x348 (= cell_4_4 9)))
 (let (($x2925 (= cell_4_4 8)))
 (let (($x1160 (= cell_4_4 7)))
 (let (($x2702 (= cell_4_4 6)))
 (let (($x977 (= cell_4_4 5)))
 (let (($x594 (= cell_4_4 4)))
 (let (($x2723 (= cell_4_4 3)))
 (let (($x252 (= cell_4_4 2)))
 (let (($x285 (= cell_4_4 1)))
 (or $x285 $x252 $x2723 $x594 $x977 $x2702 $x1160 $x2925 $x348)))))))))))
(assert
 (let (($x3337 (= cell_5_4 9)))
 (let (($x3028 (= cell_5_4 8)))
 (let (($x1571 (= cell_5_4 7)))
 (let (($x2032 (= cell_5_4 6)))
 (let (($x864 (= cell_5_4 5)))
 (let (($x2756 (= cell_5_4 4)))
 (let (($x1651 (= cell_5_4 3)))
 (let (($x2260 (= cell_5_4 2)))
 (let (($x2604 (= cell_5_4 1)))
 (or $x2604 $x2260 $x1651 $x2756 $x864 $x2032 $x1571 $x3028 $x3337)))))))))))
(assert
 (let (($x1644 (= cell_6_4 9)))
 (let (($x418 (= cell_6_4 8)))
 (let (($x842 (= cell_6_4 7)))
 (let (($x567 (= cell_6_4 6)))
 (let (($x131 (= cell_6_4 5)))
 (let (($x358 (= cell_6_4 4)))
 (let (($x2535 (= cell_6_4 3)))
 (let (($x2890 (= cell_6_4 2)))
 (let (($x2502 (= cell_6_4 1)))
 (or $x2502 $x2890 $x2535 $x358 $x131 $x567 $x842 $x418 $x1644)))))))))))
(assert
 (let (($x2743 (= cell_7_4 9)))
 (let (($x1583 (= cell_7_4 8)))
 (let (($x826 (= cell_7_4 7)))
 (let (($x1080 (= cell_7_4 6)))
 (let (($x3102 (= cell_7_4 5)))
 (let (($x34 (= cell_7_4 4)))
 (let (($x1951 (= cell_7_4 3)))
 (let (($x2187 (= cell_7_4 2)))
 (let (($x2827 (= cell_7_4 1)))
 (or $x2827 $x2187 $x1951 $x34 $x3102 $x1080 $x826 $x1583 $x2743)))))))))))
(assert
 (let (($x1422 (= cell_8_4 9)))
 (let (($x2894 (= cell_8_4 8)))
 (let (($x428 (= cell_8_4 7)))
 (let (($x713 (= cell_8_4 6)))
 (let (($x2532 (= cell_8_4 5)))
 (let (($x24 (= cell_8_4 4)))
 (let (($x4032 (= cell_8_4 3)))
 (let (($x321 (= cell_8_4 2)))
 (let (($x1226 (= cell_8_4 1)))
 (or $x1226 $x321 $x4032 $x24 $x2532 $x713 $x428 $x2894 $x1422)))))))))))
(assert
 (let (($x3040 (= cell_9_4 1)))
 (or $x3040 (= cell_9_4 2) (= cell_9_4 3) (= cell_9_4 4) (= cell_9_4 5) (= cell_9_4 6) (= cell_9_4 7) (= cell_9_4 8) (= cell_9_4 9))))
(assert
 (let (($x1454 (= cell_1_5 9)))
 (let (($x800 (= cell_1_5 8)))
 (let (($x1861 (= cell_1_5 7)))
 (let (($x1587 (= cell_1_5 6)))
 (let (($x1556 (= cell_1_5 5)))
 (let (($x3356 (= cell_1_5 4)))
 (let (($x3003 (= cell_1_5 3)))
 (let (($x2517 (= cell_1_5 2)))
 (let (($x347 (= cell_1_5 1)))
 (or $x347 $x2517 $x3003 $x3356 $x1556 $x1587 $x1861 $x800 $x1454)))))))))))
(assert
 (let (($x646 (= cell_2_5 2)))
 (or (= cell_2_5 1) $x646 (= cell_2_5 3) (= cell_2_5 4) (= cell_2_5 5) (= cell_2_5 6) (= cell_2_5 7) (= cell_2_5 8) (= cell_2_5 9))))
(assert
 (let (($x692 (= cell_3_5 9)))
 (let (($x660 (= cell_3_5 8)))
 (let (($x1351 (= cell_3_5 7)))
 (let (($x1356 (= cell_3_5 6)))
 (let (($x3100 (= cell_3_5 5)))
 (let (($x1215 (= cell_3_5 4)))
 (let (($x2206 (= cell_3_5 3)))
 (let (($x3230 (= cell_3_5 2)))
 (let (($x2341 (= cell_3_5 1)))
 (or $x2341 $x3230 $x2206 $x1215 $x3100 $x1356 $x1351 $x660 $x692)))))))))))
(assert
 (let (($x3227 (= cell_4_5 9)))
 (let (($x1291 (= cell_4_5 8)))
 (let (($x488 (= cell_4_5 7)))
 (let (($x213 (= cell_4_5 6)))
 (let (($x2197 (= cell_4_5 5)))
 (let (($x2258 (= cell_4_5 4)))
 (let (($x1251 (= cell_4_5 3)))
 (let (($x426 (= cell_4_5 2)))
 (let (($x2272 (= cell_4_5 1)))
 (or $x2272 $x426 $x1251 $x2258 $x2197 $x213 $x488 $x1291 $x3227)))))))))))
(assert
 (let (($x1529 (= cell_5_5 9)))
 (let (($x2682 (= cell_5_5 8)))
 (let (($x2459 (= cell_5_5 7)))
 (let (($x2669 (= cell_5_5 6)))
 (let (($x1355 (= cell_5_5 5)))
 (let (($x2301 (= cell_5_5 4)))
 (let (($x1619 (= cell_5_5 3)))
 (let (($x717 (= cell_5_5 2)))
 (let (($x2320 (= cell_5_5 1)))
 (or $x2320 $x717 $x1619 $x2301 $x1355 $x2669 $x2459 $x2682 $x1529)))))))))))
(assert
 (let (($x788 (= cell_6_5 9)))
 (let (($x1534 (= cell_6_5 8)))
 (let (($x179 (= cell_6_5 7)))
 (let (($x1885 (= cell_6_5 6)))
 (let (($x2302 (= cell_6_5 5)))
 (let (($x1350 (= cell_6_5 4)))
 (let (($x3341 (= cell_6_5 3)))
 (let (($x866 (= cell_6_5 2)))
 (let (($x509 (= cell_6_5 1)))
 (or $x509 $x866 $x3341 $x1350 $x2302 $x1885 $x179 $x1534 $x788)))))))))))
(assert
 (let (($x762 (= cell_7_5 9)))
 (let (($x1808 (= cell_7_5 8)))
 (let (($x1653 (= cell_7_5 7)))
 (let (($x2944 (= cell_7_5 6)))
 (let (($x456 (= cell_7_5 5)))
 (let (($x2465 (= cell_7_5 4)))
 (let (($x2609 (= cell_7_5 3)))
 (let (($x2811 (= cell_7_5 2)))
 (let (($x936 (= cell_7_5 1)))
 (or $x936 $x2811 $x2609 $x2465 $x456 $x2944 $x1653 $x1808 $x762)))))))))))
(assert
 (let (($x2584 (= cell_8_5 1)))
 (or $x2584 (= cell_8_5 2) (= cell_8_5 3) (= cell_8_5 4) (= cell_8_5 5) (= cell_8_5 6) (= cell_8_5 7) (= cell_8_5 8) (= cell_8_5 9))))
(assert
 (let (($x315 (= cell_9_5 2)))
 (let (($x284 (= cell_9_5 1)))
 (or $x284 $x315 (= cell_9_5 3) (= cell_9_5 4) (= cell_9_5 5) (= cell_9_5 6) (= cell_9_5 7) (= cell_9_5 8) (= cell_9_5 9)))))
(assert
 (let (($x2539 (= cell_1_6 9)))
 (let (($x3288 (= cell_1_6 8)))
 (let (($x2369 (= cell_1_6 7)))
 (let (($x2231 (= cell_1_6 6)))
 (let (($x906 (= cell_1_6 5)))
 (let (($x937 (= cell_1_6 4)))
 (let (($x1296 (= cell_1_6 3)))
 (let (($x1773 (= cell_1_6 2)))
 (let (($x3101 (= cell_1_6 1)))
 (or $x3101 $x1773 $x1296 $x937 $x906 $x2231 $x2369 $x3288 $x2539)))))))))))
(assert
 (let (($x2961 (= cell_2_6 9)))
 (let (($x1937 (= cell_2_6 8)))
 (let (($x2020 (= cell_2_6 7)))
 (let (($x283 (= cell_2_6 6)))
 (let (($x828 (= cell_2_6 5)))
 (let (($x3199 (= cell_2_6 4)))
 (let (($x570 (= cell_2_6 3)))
 (let (($x1987 (= cell_2_6 2)))
 (let (($x2125 (= cell_2_6 1)))
 (or $x2125 $x1987 $x570 $x3199 $x828 $x283 $x2020 $x1937 $x2961)))))))))))
(assert
 (let (($x4461 (= cell_3_6 9)))
 (let (($x1724 (= cell_3_6 8)))
 (let (($x1243 (= cell_3_6 7)))
 (let (($x1255 (= cell_3_6 6)))
 (let (($x2685 (= cell_3_6 5)))
 (let (($x1544 (= cell_3_6 4)))
 (let (($x158 (= cell_3_6 3)))
 (let (($x602 (= cell_3_6 2)))
 (let (($x1229 (= cell_3_6 1)))
 (or $x1229 $x602 $x158 $x1544 $x2685 $x1255 $x1243 $x1724 $x4461)))))))))))
(assert
 (let (($x2631 (= cell_4_6 9)))
 (let (($x373 (= cell_4_6 8)))
 (let (($x1396 (= cell_4_6 7)))
 (let (($x3153 (= cell_4_6 6)))
 (let (($x1674 (= cell_4_6 5)))
 (let (($x2836 (= cell_4_6 4)))
 (let (($x2409 (= cell_4_6 3)))
 (let (($x1787 (= cell_4_6 2)))
 (let (($x2486 (= cell_4_6 1)))
 (or $x2486 $x1787 $x2409 $x2836 $x1674 $x3153 $x1396 $x373 $x2631)))))))))))
(assert
 (let (($x1342 (= cell_5_6 9)))
 (let (($x2601 (= cell_5_6 8)))
 (let (($x2499 (= cell_5_6 7)))
 (let (($x1714 (= cell_5_6 6)))
 (let (($x597 (= cell_5_6 5)))
 (let (($x26 (= cell_5_6 4)))
 (let (($x2052 (= cell_5_6 3)))
 (let (($x1172 (= cell_5_6 2)))
 (let (($x761 (= cell_5_6 1)))
 (or $x761 $x1172 $x2052 $x26 $x597 $x1714 $x2499 $x2601 $x1342)))))))))))
(assert
 (let (($x1914 (= cell_6_6 1)))
 (or $x1914 (= cell_6_6 2) (= cell_6_6 3) (= cell_6_6 4) (= cell_6_6 5) (= cell_6_6 6) (= cell_6_6 7) (= cell_6_6 8) (= cell_6_6 9))))
(assert
 (let (($x3418 (= cell_7_6 9)))
 (let (($x1436 (= cell_7_6 8)))
 (let (($x3050 (= cell_7_6 7)))
 (let (($x1580 (= cell_7_6 6)))
 (let (($x1306 (= cell_7_6 5)))
 (let (($x1059 (= cell_7_6 4)))
 (let (($x3171 (= cell_7_6 3)))
 (let (($x1122 (= cell_7_6 2)))
 (let (($x1625 (= cell_7_6 1)))
 (or $x1625 $x1122 $x3171 $x1059 $x1306 $x1580 $x3050 $x1436 $x3418)))))))))))
(assert
 (let (($x1048 (= cell_8_6 1)))
 (or $x1048 (= cell_8_6 2) (= cell_8_6 3) (= cell_8_6 4) (= cell_8_6 5) (= cell_8_6 6) (= cell_8_6 7) (= cell_8_6 8) (= cell_8_6 9))))
(assert
 (let (($x2227 (= cell_9_6 1)))
 (or $x2227 (= cell_9_6 2) (= cell_9_6 3) (= cell_9_6 4) (= cell_9_6 5) (= cell_9_6 6) (= cell_9_6 7) (= cell_9_6 8) (= cell_9_6 9))))
(assert
 (let (($x1044 (= cell_1_7 9)))
 (let (($x2521 (= cell_1_7 8)))
 (let (($x2870 (= cell_1_7 7)))
 (let (($x1956 (= cell_1_7 6)))
 (let (($x2765 (= cell_1_7 5)))
 (let (($x1015 (= cell_1_7 4)))
 (let (($x304 (= cell_1_7 3)))
 (let (($x2850 (= cell_1_7 2)))
 (let (($x3342 (= cell_1_7 1)))
 (or $x3342 $x2850 $x304 $x1015 $x2765 $x1956 $x2870 $x2521 $x1044)))))))))))
(assert
 (let (($x2531 (= cell_2_7 9)))
 (let (($x3186 (= cell_2_7 8)))
 (let (($x1856 (= cell_2_7 7)))
 (let (($x2036 (= cell_2_7 6)))
 (let (($x2506 (= cell_2_7 5)))
 (let (($x2752 (= cell_2_7 4)))
 (let (($x1354 (= cell_2_7 3)))
 (let (($x556 (= cell_2_7 2)))
 (let (($x658 (= cell_2_7 1)))
 (or $x658 $x556 $x1354 $x2752 $x2506 $x2036 $x1856 $x3186 $x2531)))))))))))
(assert
 (let (($x533 (= cell_3_7 9)))
 (let (($x1332 (= cell_3_7 8)))
 (let (($x1867 (= cell_3_7 7)))
 (let (($x1513 (= cell_3_7 6)))
 (let (($x1652 (= cell_3_7 5)))
 (let (($x1409 (= cell_3_7 4)))
 (let (($x2813 (= cell_3_7 3)))
 (let (($x2612 (= cell_3_7 2)))
 (let (($x2012 (= cell_3_7 1)))
 (or $x2012 $x2612 $x2813 $x1409 $x1652 $x1513 $x1867 $x1332 $x533)))))))))))
(assert
 (let (($x441 (= cell_4_7 9)))
 (let (($x1096 (= cell_4_7 8)))
 (let (($x1240 (= cell_4_7 7)))
 (let (($x641 (= cell_4_7 6)))
 (let (($x1618 (= cell_4_7 5)))
 (let (($x2688 (= cell_4_7 4)))
 (let (($x825 (= cell_4_7 3)))
 (let (($x3366 (= cell_4_7 2)))
 (let (($x1182 (= cell_4_7 1)))
 (or $x1182 $x3366 $x825 $x2688 $x1618 $x641 $x1240 $x1096 $x441)))))))))))
(assert
 (let (($x480 (= cell_5_7 9)))
 (let (($x2755 (= cell_5_7 8)))
 (let (($x2096 (= cell_5_7 7)))
 (let (($x2034 (= cell_5_7 6)))
 (let (($x3302 (= cell_5_7 5)))
 (let (($x821 (= cell_5_7 4)))
 (let (($x1300 (= cell_5_7 3)))
 (let (($x1687 (= cell_5_7 2)))
 (let (($x1694 (= cell_5_7 1)))
 (or $x1694 $x1687 $x1300 $x821 $x3302 $x2034 $x2096 $x2755 $x480)))))))))))
(assert
 (let (($x1701 (= cell_6_7 9)))
 (let (($x3108 (= cell_6_7 8)))
 (let (($x1273 (= cell_6_7 7)))
 (let (($x973 (= cell_6_7 6)))
 (let (($x2828 (= cell_6_7 5)))
 (let (($x2862 (= cell_6_7 4)))
 (let (($x1299 (= cell_6_7 3)))
 (let (($x381 (= cell_6_7 2)))
 (let (($x67 (= cell_6_7 1)))
 (or $x67 $x381 $x1299 $x2862 $x2828 $x973 $x1273 $x3108 $x1701)))))))))))
(assert
 (let (($x3024 (= cell_7_7 1)))
 (or $x3024 (= cell_7_7 2) (= cell_7_7 3) (= cell_7_7 4) (= cell_7_7 5) (= cell_7_7 6) (= cell_7_7 7) (= cell_7_7 8) (= cell_7_7 9))))
(assert
 (let (($x2511 (= cell_8_7 1)))
 (or $x2511 (= cell_8_7 2) (= cell_8_7 3) (= cell_8_7 4) (= cell_8_7 5) (= cell_8_7 6) (= cell_8_7 7) (= cell_8_7 8) (= cell_8_7 9))))
(assert
 (let (($x843 (= cell_9_7 1)))
 (or $x843 (= cell_9_7 2) (= cell_9_7 3) (= cell_9_7 4) (= cell_9_7 5) (= cell_9_7 6) (= cell_9_7 7) (= cell_9_7 8) (= cell_9_7 9))))
(assert
 (let (($x298 (= cell_1_8 1)))
 (or $x298 (= cell_1_8 2) (= cell_1_8 3) (= cell_1_8 4) (= cell_1_8 5) (= cell_1_8 6) (= cell_1_8 7) (= cell_1_8 8) (= cell_1_8 9))))
(assert
 (let (($x2309 (= cell_2_8 2)))
 (let (($x1261 (= cell_2_8 1)))
 (or $x1261 $x2309 (= cell_2_8 3) (= cell_2_8 4) (= cell_2_8 5) (= cell_2_8 6) (= cell_2_8 7) (= cell_2_8 8) (= cell_2_8 9)))))
(assert
 (let (($x2103 (= cell_3_8 2)))
 (let (($x2523 (= cell_3_8 1)))
 (or $x2523 $x2103 (= cell_3_8 3) (= cell_3_8 4) (= cell_3_8 5) (= cell_3_8 6) (= cell_3_8 7) (= cell_3_8 8) (= cell_3_8 9)))))
(assert
 (let (($x700 (= cell_4_8 9)))
 (let (($x2094 (= cell_4_8 8)))
 (let (($x3164 (= cell_4_8 7)))
 (let (($x983 (= cell_4_8 6)))
 (let (($x2778 (= cell_4_8 5)))
 (let (($x2224 (= cell_4_8 4)))
 (let (($x3387 (= cell_4_8 3)))
 (let (($x2620 (= cell_4_8 2)))
 (let (($x2033 (= cell_4_8 1)))
 (or $x2033 $x2620 $x3387 $x2224 $x2778 $x983 $x3164 $x2094 $x700)))))))))))
(assert
 (let (($x3190 (= cell_5_8 1)))
 (or $x3190 (= cell_5_8 2) (= cell_5_8 3) (= cell_5_8 4) (= cell_5_8 5) (= cell_5_8 6) (= cell_5_8 7) (= cell_5_8 8) (= cell_5_8 9))))
(assert
 (let (($x2305 (= cell_6_8 9)))
 (let (($x1026 (= cell_6_8 8)))
 (let (($x1170 (= cell_6_8 7)))
 (let (($x477 (= cell_6_8 6)))
 (let (($x1662 (= cell_6_8 5)))
 (let (($x3084 (= cell_6_8 4)))
 (let (($x754 (= cell_6_8 3)))
 (let (($x2044 (= cell_6_8 2)))
 (let (($x838 (= cell_6_8 1)))
 (or $x838 $x2044 $x754 $x3084 $x1662 $x477 $x1170 $x1026 $x2305)))))))))))
(assert
 (let (($x1725 (= cell_7_8 1)))
 (or $x1725 (= cell_7_8 2) (= cell_7_8 3) (= cell_7_8 4) (= cell_7_8 5) (= cell_7_8 6) (= cell_7_8 7) (= cell_7_8 8) (= cell_7_8 9))))
(assert
 (let (($x1807 (= cell_8_8 1)))
 (or $x1807 (= cell_8_8 2) (= cell_8_8 3) (= cell_8_8 4) (= cell_8_8 5) (= cell_8_8 6) (= cell_8_8 7) (= cell_8_8 8) (= cell_8_8 9))))
(assert
 (let (($x2017 (= cell_9_8 1)))
 (or $x2017 (= cell_9_8 2) (= cell_9_8 3) (= cell_9_8 4) (= cell_9_8 5) (= cell_9_8 6) (= cell_9_8 7) (= cell_9_8 8) (= cell_9_8 9))))
(assert
 (let (($x434 (= cell_1_9 2)))
 (or (= cell_1_9 1) $x434 (= cell_1_9 3) (= cell_1_9 4) (= cell_1_9 5) (= cell_1_9 6) (= cell_1_9 7) (= cell_1_9 8) (= cell_1_9 9))))
(assert
 (let (($x813 (= cell_2_9 9)))
 (let (($x2395 (= cell_2_9 8)))
 (let (($x2761 (= cell_2_9 7)))
 (let (($x1075 (= cell_2_9 6)))
 (let (($x492 (= cell_2_9 5)))
 (let (($x540 (= cell_2_9 4)))
 (let (($x1703 (= cell_2_9 3)))
 (let (($x3241 (= cell_2_9 2)))
 (let (($x1393 (= cell_2_9 1)))
 (or $x1393 $x3241 $x1703 $x540 $x492 $x1075 $x2761 $x2395 $x813)))))))))))
(assert
 (let (($x2831 (= cell_3_9 9)))
 (let (($x1522 (= cell_3_9 8)))
 (let (($x2544 (= cell_3_9 7)))
 (let (($x2853 (= cell_3_9 6)))
 (let (($x1377 (= cell_3_9 5)))
 (let (($x2741 (= cell_3_9 4)))
 (let (($x2705 (= cell_3_9 3)))
 (let (($x903 (= cell_3_9 2)))
 (let (($x2722 (= cell_3_9 1)))
 (or $x2722 $x903 $x2705 $x2741 $x1377 $x2853 $x2544 $x1522 $x2831)))))))))))
(assert
 (let (($x543 (= cell_4_9 1)))
 (or $x543 (= cell_4_9 2) (= cell_4_9 3) (= cell_4_9 4) (= cell_4_9 5) (= cell_4_9 6) (= cell_4_9 7) (= cell_4_9 8) (= cell_4_9 9))))
(assert
 (let (($x998 (= cell_5_9 9)))
 (let (($x2271 (= cell_5_9 8)))
 (let (($x2605 (= cell_5_9 7)))
 (let (($x1485 (= cell_5_9 6)))
 (let (($x955 (= cell_5_9 5)))
 (let (($x1071 (= cell_5_9 4)))
 (let (($x1797 (= cell_5_9 3)))
 (let (($x243 (= cell_5_9 2)))
 (let (($x2061 (= cell_5_9 1)))
 (or $x2061 $x243 $x1797 $x1071 $x955 $x1485 $x2605 $x2271 $x998)))))))))))
(assert
 (let (($x2028 (= cell_6_9 2)))
 (let (($x352 (= cell_6_9 1)))
 (or $x352 $x2028 (= cell_6_9 3) (= cell_6_9 4) (= cell_6_9 5) (= cell_6_9 6) (= cell_6_9 7) (= cell_6_9 8) (= cell_6_9 9)))))
(assert
 (let (($x934 (= cell_7_9 2)))
 (let (($x2965 (= cell_7_9 1)))
 (or $x2965 $x934 (= cell_7_9 3) (= cell_7_9 4) (= cell_7_9 5) (= cell_7_9 6) (= cell_7_9 7) (= cell_7_9 8) (= cell_7_9 9)))))
(assert
 (let (($x1284 (= cell_8_9 2)))
 (let (($x87 (= cell_8_9 1)))
 (or $x87 $x1284 (= cell_8_9 3) (= cell_8_9 4) (= cell_8_9 5) (= cell_8_9 6) (= cell_8_9 7) (= cell_8_9 8) (= cell_8_9 9)))))
(assert
 (let (($x1165 (= cell_9_9 2)))
 (let (($x168 (= cell_9_9 1)))
 (or $x168 $x1165 (= cell_9_9 3) (= cell_9_9 4) (= cell_9_9 5) (= cell_9_9 6) (= cell_9_9 7) (= cell_9_9 8) (= cell_9_9 9)))))
(assert
 (and (distinct cell_1_1 cell_1_2 cell_1_3 cell_1_4 cell_1_5 cell_1_6 cell_1_7 cell_1_8 cell_1_9) true))
(assert
 (and (distinct cell_2_1 cell_2_2 cell_2_3 cell_2_4 cell_2_5 cell_2_6 cell_2_7 cell_2_8 cell_2_9) true))
(assert
 (and (distinct cell_3_1 cell_3_2 cell_3_3 cell_3_4 cell_3_5 cell_3_6 cell_3_7 cell_3_8 cell_3_9) true))
(assert
 (and (distinct cell_4_1 cell_4_2 cell_4_3 cell_4_4 cell_4_5 cell_4_6 cell_4_7 cell_4_8 cell_4_9) true))
(assert
 (and (distinct cell_5_1 cell_5_2 cell_5_3 cell_5_4 cell_5_5 cell_5_6 cell_5_7 cell_5_8 cell_5_9) true))
(assert
 (and (distinct cell_6_1 cell_6_2 cell_6_3 cell_6_4 cell_6_5 cell_6_6 cell_6_7 cell_6_8 cell_6_9) true))
(assert
 (and (distinct cell_7_1 cell_7_2 cell_7_3 cell_7_4 cell_7_5 cell_7_6 cell_7_7 cell_7_8 cell_7_9) true))
(assert
 (and (distinct cell_8_1 cell_8_2 cell_8_3 cell_8_4 cell_8_5 cell_8_6 cell_8_7 cell_8_8 cell_8_9) true))
(assert
 (and (distinct cell_9_1 cell_9_2 cell_9_3 cell_9_4 cell_9_5 cell_9_6 cell_9_7 cell_9_8 cell_9_9) true))
(assert
 (and (distinct cell_1_1 cell_2_1 cell_3_1 cell_4_1 cell_5_1 cell_6_1 cell_7_1 cell_8_1 cell_9_1) true))
(assert
 (and (distinct cell_1_2 cell_2_2 cell_3_2 cell_4_2 cell_5_2 cell_6_2 cell_7_2 cell_8_2 cell_9_2) true))
(assert
 (and (distinct cell_1_3 cell_2_3 cell_3_3 cell_4_3 cell_5_3 cell_6_3 cell_7_3 cell_8_3 cell_9_3) true))
(assert
 (and (distinct cell_1_4 cell_2_4 cell_3_4 cell_4_4 cell_5_4 cell_6_4 cell_7_4 cell_8_4 cell_9_4) true))
(assert
 (and (distinct cell_1_5 cell_2_5 cell_3_5 cell_4_5 cell_5_5 cell_6_5 cell_7_5 cell_8_5 cell_9_5) true))
(assert
 (and (distinct cell_1_6 cell_2_6 cell_3_6 cell_4_6 cell_5_6 cell_6_6 cell_7_6 cell_8_6 cell_9_6) true))
(assert
 (and (distinct cell_1_7 cell_2_7 cell_3_7 cell_4_7 cell_5_7 cell_6_7 cell_7_7 cell_8_7 cell_9_7) true))
(assert
 (and (distinct cell_1_8 cell_2_8 cell_3_8 cell_4_8 cell_5_8 cell_6_8 cell_7_8 cell_8_8 cell_9_8) true))
(assert
 (and (distinct cell_1_9 cell_2_9 cell_3_9 cell_4_9 cell_5_9 cell_6_9 cell_7_9 cell_8_9 cell_9_9) true))
(assert
 (and (distinct cell_1_1 cell_1_2 cell_1_3 cell_2_1 cell_2_2 cell_2_3 cell_3_1 cell_3_2 cell_3_3) true))
(assert
 (and (distinct cell_1_4 cell_1_5 cell_1_6 cell_2_4 cell_2_5 cell_2_6 cell_3_4 cell_3_5 cell_3_6) true))
(assert
 (and (distinct cell_1_7 cell_1_8 cell_1_9 cell_2_7 cell_2_8 cell_2_9 cell_3_7 cell_3_8 cell_3_9) true))
(assert
 (and (distinct cell_4_1 cell_4_2 cell_4_3 cell_5_1 cell_5_2 cell_5_3 cell_6_1 cell_6_2 cell_6_3) true))
(assert
 (and (distinct cell_4_4 cell_4_5 cell_4_6 cell_5_4 cell_5_5 cell_5_6 cell_6_4 cell_6_5 cell_6_6) true))
(assert
 (and (distinct cell_4_7 cell_4_8 cell_4_9 cell_5_7 cell_5_8 cell_5_9 cell_6_7 cell_6_8 cell_6_9) true))
(assert
 (and (distinct cell_7_1 cell_7_2 cell_7_3 cell_8_1 cell_8_2 cell_8_3 cell_9_1 cell_9_2 cell_9_3) true))
(assert
 (and (distinct cell_7_4 cell_7_5 cell_7_6 cell_8_4 cell_8_5 cell_8_6 cell_9_4 cell_9_5 cell_9_6) true))
(assert
 (and (distinct cell_7_7 cell_7_8 cell_7_9 cell_8_7 cell_8_8 cell_8_9 cell_9_7 cell_9_8 cell_9_9) true))
(assert
 (let (($x1076 (and (distinct cell_5_9 cell_6_8 cell_7_7 cell_8_6) true)))
 (let (($x939 (and (distinct cell_2_9 cell_3_8 cell_4_7 cell_5_6 cell_6_5 cell_7_4 cell_8_3 cell_9_2) true)))
 (let (($x780 (and (distinct cell_1_8 cell_2_7 cell_3_6 cell_4_5 cell_5_4 cell_6_3 cell_7_2 cell_8_1) true)))
 (let (($x2868 (and (distinct cell_1_5 cell_2_4 cell_3_3 cell_4_2) true)))
 (let (($x4284 (and (distinct cell_5_1 cell_6_2 cell_7_3 cell_8_4) true)))
 (let (($x337 (and (distinct cell_2_1 cell_3_2 cell_4_3 cell_5_4 cell_6_5 cell_7_6 cell_8_7 cell_9_8) true)))
 (let (($x706 (and (distinct cell_1_2 cell_2_3 cell_3_4 cell_4_5 cell_5_6 cell_6_7 cell_7_8 cell_8_9) true)))
 (let (($x2203 (and (distinct cell_1_5 cell_2_6 cell_3_7 cell_4_8) true)))
 (and $x2203 $x706 $x337 $x4284 $x2868 $x780 $x939 $x1076))))))))))
(assert
 (= cell_3_1 2))
(check-sat)
